NAME : att48Preorder.2626.tour
COMMENT : Length = 2626
COMMENT : Found by LKH [Keld Helsgaun] Mon May  4 11:41:19 2020
TYPE : TOUR
DIMENSION : 48
TOUR_SECTION
1
8
38
31
44
18
7
28
6
37
19
27
17
43
30
36
46
33
20
47
21
32
39
48
5
42
24
10
45
35
4
26
2
29
34
41
16
22
3
23
14
25
13
11
12
15
40
9
-1
EOF
